log/Reading instance from file data/g03.dat
Number of nodes: 51
Number of edges: 176
initialize CPLEX ... done.
Calling CPLEX solve ...
Version identifier: 12.10.0.0 | 2019-11-26 | 843d4de
CPXPARAM_Threads                                 1
CPXPARAM_TimeLimit                               3600
CPXPARAM_WorkMem                                 8192
Tried aggregator 2 times.
MIP Presolve eliminated 76 rows and 100 columns.
MIP Presolve modified 427 coefficients.
Aggregator did 25 substitutions.
Reduced MIP has 405 rows, 629 columns, and 2089 nonzeros.
Reduced MIP has 327 binaries, 302 generals, 0 SOSs, and 0 indicators.
Presolve time = 0.01 sec. (2.79 ticks)
Probing fixed 0 vars, tightened 67 bounds.
Probing time = 0.00 sec. (1.05 ticks)
Cover probing fixed 0 vars, tightened 4 bounds.
Tried aggregator 1 time.
Detecting symmetries...
Reduced MIP has 405 rows, 629 columns, and 2089 nonzeros.
Reduced MIP has 327 binaries, 302 generals, 0 SOSs, and 0 indicators.
Presolve time = 0.00 sec. (1.34 ticks)
Probing time = 0.00 sec. (0.84 ticks)
Cover probing fixed 0 vars, tightened 46 bounds.
Clique table members: 303.
MIP emphasis: balance optimality and feasibility.
MIP search method: dynamic search.
Parallel mode: none, using 1 thread.
Root relaxation solution time = 0.00 sec. (3.77 ticks)

        Nodes                                         Cuts/
   Node  Left     Objective  IInf  Best Integer    Best Bound    ItCnt     Gap

      0     0     1619.0100    40                   1619.0100      229         
      0     0     1736.9947    40                    Cuts: 79      340         
      0     0     2167.0294    40                    Cuts: 70      464         
      0     0     2305.3001    40                    Cuts: 44      556         
      0     0     2393.1739    40                    Cuts: 57      651         
      0     0     2407.6918    40                    Cuts: 14      689         
Detecting symmetries...
      0     0     2413.8068    40                    Cuts: 20      733         
      0     0     2419.6263    40                    Cuts: 15      763         
      0     0     2430.7417    40                     Cuts: 9      795         
Detecting symmetries...
      0     2     2430.7417   110                   2430.8662      795         
Elapsed time = 0.20 sec. (206.11 ticks, tree = 0.01 MB, solutions = 0)
*    60+   59                         4940.0000     2431.1020            50.79%
*    90+   71                         3796.0000     2440.0464            35.72%
*   220+  170                         3357.0000     2447.1701            27.10%
    237   185     3110.3285    46     3357.0000     2447.1701     7600   27.10%
*   320+  239                         3305.0000     2453.6407            25.76%
*   440+  324                         3295.0000     2486.7398            24.53%
    481   357     2840.5302    35     3295.0000     2499.4430    14775   24.14%
*   499   344      integral     0     3190.0000     2500.9841    15433   21.60%
*   599+  407                         3151.0000     2519.4958            20.04%
*   599+  399                         3143.0000     2519.4958            19.84%
    750   507     2785.3082    57     3143.0000     2527.6145    23018   19.58%
*   800+  543                         3140.0000     2529.6491            19.44%
*   900+  568                         3074.0000     2544.1229            17.24%
   1015   642     2804.1093    67     3074.0000     2556.4936    30555   16.83%

Performing restart 1

Repeating presolve.
Tried aggregator 1 time.
MIP Presolve eliminated 12 rows and 74 columns.
MIP Presolve modified 339 coefficients.
Reduced MIP has 393 rows, 555 columns, and 1760 nonzeros.
Reduced MIP has 315 binaries, 240 generals, 0 SOSs, and 0 indicators.
Presolve time = 0.00 sec. (1.73 ticks)
Tried aggregator 1 time.
MIP Presolve modified 64 coefficients.
Reduced MIP has 392 rows, 555 columns, and 1715 nonzeros.
Reduced MIP has 315 binaries, 240 generals, 0 SOSs, and 0 indicators.
Presolve time = 0.00 sec. (1.38 ticks)
Represolve time = 0.01 sec. (6.87 ticks)
   1187     0     2827.1403   105     3074.0000      Cuts: 75    35153    8.03%
   1187     0     3009.9026   105     3074.0000     Cuts: 110    35398    2.09%

Repeating presolve.
Tried aggregator 2 times.
MIP Presolve eliminated 192 rows and 311 columns.
MIP Presolve added 10 rows and 0 columns.
MIP Presolve modified 57 coefficients.
Aggregator did 25 substitutions.
Reduced MIP has 185 rows, 219 columns, and 700 nonzeros.
Reduced MIP has 128 binaries, 91 generals, 0 SOSs, and 0 indicators.
Presolve time = 0.00 sec. (1.56 ticks)
Tried aggregator 1 time.
MIP Presolve eliminated 2 rows and 4 columns.
MIP Presolve modified 43 coefficients.
Reduced MIP has 183 rows, 215 columns, and 691 nonzeros.
Reduced MIP has 124 binaries, 91 generals, 0 SOSs, and 0 indicators.
Presolve time = 0.00 sec. (0.40 ticks)
Tried aggregator 1 time.
MIP Presolve modified 22 coefficients.
Reduced MIP has 183 rows, 215 columns, and 691 nonzeros.
Reduced MIP has 124 binaries, 91 generals, 0 SOSs, and 0 indicators.
Presolve time = 0.00 sec. (0.48 ticks)
Represolve time = 0.01 sec. (7.05 ticks)
   1187     0     3060.7430    45     3074.0000      Cuts: 58    35698    0.43%
   1187     0     3072.9105    45     3074.0000     Cuts: 123    35753    0.04%

Repeating presolve.
Tried aggregator 2 times.
MIP Presolve eliminated 90 rows and 110 columns.
MIP Presolve added 2 rows and 0 columns.
MIP Presolve modified 22 coefficients.
Aggregator did 12 substitutions.
Reduced MIP has 83 rows, 93 columns, and 268 nonzeros.
Reduced MIP has 48 binaries, 45 generals, 0 SOSs, and 0 indicators.
Presolve time = 0.00 sec. (0.50 ticks)
Tried aggregator 2 times.
MIP Presolve eliminated 4 rows and 4 columns.
MIP Presolve modified 18 coefficients.
Aggregator did 3 substitutions.
Reduced MIP has 76 rows, 86 columns, and 250 nonzeros.
Reduced MIP has 45 binaries, 41 generals, 0 SOSs, and 0 indicators.
Presolve time = 0.00 sec. (0.20 ticks)
Tried aggregator 1 time.
MIP Presolve modified 17 coefficients.
Reduced MIP has 76 rows, 86 columns, and 250 nonzeros.
Reduced MIP has 45 binaries, 41 generals, 0 SOSs, and 0 indicators.
Presolve time = 0.00 sec. (0.17 ticks)
Represolve time = 0.01 sec. (3.73 ticks)
*  1187     0      integral     0     3074.0000     3073.2410    35835    0.02%

GUB cover cuts applied:  2
Cover cuts applied:  3
Implied bound cuts applied:  7
Flow cuts applied:  17
Mixed integer rounding cuts applied:  23
Zero-half cuts applied:  1
Lift and project cuts applied:  4
Gomory fractional cuts applied:  1

Root node processing (before b&c):
  Real time             =    0.20 sec. (206.14 ticks)
Sequential b&c:
  Real time             =    1.08 sec. (1225.11 ticks)
                          ------------
Total (root+branch&cut) =    1.29 sec. (1431.25 ticks)
SOLUTION:

x(0,50)[0..1]  = 1
x(5,19)[0..1]  = 1
x(8,17)[0..1]  = 1
x(11,16)[0..1]  = 1
x(13,28)[0..1]  = 1
x(16,21)[0..1]  = 1
x(16,23)[0..1]  = 1
x(16,31)[0..1]  = 1
x(17,24)[0..1]  = 1
x(24,33)[0..1]  = 1
x(25,46)[0..1]  = 1
x(18,5)[0..1]  = 1
x(18,8)[0..1]  = 1
x(19,10)[0..1]  = 1
x(43,11)[0..1]  = 1
x(33,13)[0..1]  = 1
x(31,18)[0..1]  = 1
x(31,22)[0..1]  = 1
x(45,25)[0..1]  = 1
x(48,35)[0..1]  = 1
x(50,43)[0..1]  = 1
x(45,44)[0..1]  = 1
x(50,45)[0..1]  = 1
x(49,48)[0..1]  = 1
x(50,49)[0..1]  = 1
z(5)[0..1]  = 1
z(8)[0..1]  = 1
z(10)[0..1]  = 1
z(11)[0..1]  = 1
z(13)[0..1]  = 1
z(16)[0..1]  = 1
z(17)[0..1]  = 1
z(18)[0..1]  = 1
z(19)[0..1]  = 1
z(21)[0..1]  = 1
z(22)[0..1]  = 1
z(23)[0..1]  = 1
z(24)[0..1]  = 1
z(25)[0..1]  = 1
z(28)[0..1]  = 1
z(31)[0..1]  = 1
z(33)[0..1]  = 1
z(35)[0..1]  = 1
z(43)[0..1]  = 1
z(44)[0..1]  = 1
z(45)[0..1]  = 1
z(46)[0..1]  = 1
z(48)[0..1]  = 1
z(49)[0..1]  = 1
z(50)[0..1]  = 1


CPLEX finished.

CPLEX status: Optimal
Branch-and-Bound nodes: 1187
Objective value: 3074
CPU time: 1.28

